c colouring generated by benchmark framework
p edge 500 121275
v 1 89
v 2 66
v 3 89
v 4 11
v 5 38
v 6 73
v 7 25
v 8 89
v 9 43
v 10 95
v 11 67
v 12 32
v 13 30
v 14 19
v 15 73
v 16 66
v 17 74
v 18 35
v 19 6
v 20 21
v 21 55
v 22 63
v 23 69
v 24 40
v 25 22
v 26 56
v 27 83
v 28 72
v 29 77
v 30 58
v 31 32
v 32 90
v 33 95
v 34 71
v 35 72
v 36 47
v 37 47
v 38 95
v 39 40
v 40 16
v 41 5
v 42 82
v 43 49
v 44 32
v 45 1
v 46 3
v 47 57
v 48 84
v 49 72
v 50 18
v 51 5
v 52 88
v 53 55
v 54 48
v 55 29
v 56 37
v 57 18
v 58 75
v 59 46
v 60 51
v 61 98
v 62 55
v 63 14
v 64 26
v 65 74
v 66 4
v 67 96
v 68 83
v 69 28
v 70 43
v 71 80
v 72 67
v 73 69
v 74 17
v 75 5
v 76 19
v 77 73
v 78 26
v 79 85
v 80 27
v 81 77
v 82 30
v 83 98
v 84 83
v 85 84
v 86 28
v 87 9
v 88 48
v 89 18
v 90 32
v 91 72
v 92 80
v 93 93
v 94 0
v 95 86
v 96 73
v 97 68
v 98 36
v 99 14
v 100 16
v 101 68
v 102 51
v 103 38
v 104 21
v 105 51
v 106 22
v 107 69
v 108 93
v 109 80
v 110 15
v 111 54
v 112 53
v 113 28
v 114 11
v 115 20
v 116 20
v 117 40
v 118 81
v 119 23
v 120 83
v 121 18
v 122 56
v 123 29
v 124 9
v 125 17
v 126 45
v 127 17
v 128 87
v 129 58
v 130 61
v 131 87
v 132 38
v 133 46
v 134 95
v 135 32
v 136 36
v 137 46
v 138 63
v 139 59
v 140 61
v 141 3
v 142 28
v 143 7
v 144 46
v 145 53
v 146 50
v 147 16
v 148 72
v 149 44
v 150 73
v 151 59
v 152 89
v 153 60
v 154 80
v 155 90
v 156 81
v 157 37
v 158 60
v 159 60
v 160 4
v 161 80
v 162 56
v 163 53
v 164 68
v 165 59
v 166 47
v 167 44
v 168 83
v 169 44
v 170 88
v 171 24
v 172 23
v 173 11
v 174 93
v 175 18
v 176 76
v 177 29
v 178 42
v 179 19
v 180 57
v 181 52
v 182 66
v 183 39
v 184 45
v 185 47
v 186 65
v 187 67
v 188 91
v 189 2
v 190 56
v 191 84
v 192 90
v 193 37
v 194 8
v 195 85
v 196 28
v 197 34
v 198 70
v 199 7
v 200 10
v 201 89
v 202 49
v 203 32
v 204 65
v 205 8
v 206 39
v 207 83
v 208 54
v 209 18
v 210 80
v 211 40
v 212 97
v 213 67
v 214 75
v 215 47
v 216 13
v 217 88
v 218 69
v 219 84
v 220 93
v 221 24
v 222 24
v 223 15
v 224 22
v 225 45
v 226 28
v 227 49
v 228 74
v 229 81
v 230 41
v 231 33
v 232 44
v 233 82
v 234 72
v 235 86
v 236 33
v 237 58
v 238 66
v 239 57
v 240 76
v 241 32
v 242 52
v 243 33
v 244 13
v 245 42
v 246 20
v 247 45
v 248 57
v 249 15
v 250 1
v 251 31
v 252 1
v 253 23
v 254 34
v 255 50
v 256 80
v 257 78
v 258 96
v 259 14
v 260 77
v 261 75
v 262 21
v 263 72
v 264 54
v 265 45
v 266 57
v 267 62
v 268 22
v 269 5
v 270 1
v 271 7
v 272 39
v 273 30
v 274 65
v 275 43
v 276 31
v 277 80
v 278 88
v 279 2
v 280 16
v 281 75
v 282 23
v 283 19
v 284 72
v 285 38
v 286 66
v 287 75
v 288 75
v 289 44
v 290 15
v 291 95
v 292 40
v 293 85
v 294 46
v 295 9
v 296 72
v 297 41
v 298 62
v 299 21
v 300 39
v 301 89
v 302 90
v 303 35
v 304 76
v 305 67
v 306 45
v 307 35
v 308 75
v 309 12
v 310 20
v 311 16
v 312 61
v 313 59
v 314 43
v 315 53
v 316 76
v 317 64
v 318 35
v 319 63
v 320 54
v 321 2
v 322 81
v 323 38
v 324 25
v 325 26
v 326 27
v 327 38
v 328 40
v 329 33
v 330 71
v 331 19
v 332 14
v 333 19
v 334 66
v 335 5
v 336 27
v 337 57
v 338 70
v 339 70
v 340 64
v 341 66
v 342 19
v 343 58
v 344 65
v 345 35
v 346 43
v 347 83
v 348 3
v 349 23
v 350 42
v 351 6
v 352 77
v 353 12
v 354 75
v 355 14
v 356 27
v 357 31
v 358 95
v 359 44
v 360 6
v 361 3
v 362 29
v 363 37
v 364 20
v 365 34
v 366 29
v 367 80
v 368 41
v 369 43
v 370 17
v 371 25
v 372 2
v 373 66
v 374 94
v 375 24
v 376 9
v 377 56
v 378 16
v 379 33
v 380 90
v 381 11
v 382 89
v 383 72
v 384 59
v 385 35
v 386 67
v 387 59
v 388 54
v 389 57
v 390 84
v 391 80
v 392 27
v 393 87
v 394 56
v 395 31
v 396 32
v 397 38
v 398 42
v 399 51
v 400 40
v 401 68
v 402 92
v 403 24
v 404 7
v 405 10
v 406 70
v 407 18
v 408 4
v 409 44
v 410 12
v 411 22
v 412 65
v 413 22
v 414 24
v 415 24
v 416 12
v 417 26
v 418 15
v 419 88
v 420 39
v 421 8
v 422 48
v 423 46
v 424 3
v 425 34
v 426 69
v 427 82
v 428 21
v 429 33
v 430 0
v 431 35
v 432 66
v 433 54
v 434 47
v 435 15
v 436 47
v 437 23
v 438 13
v 439 36
v 440 56
v 441 15
v 442 70
v 443 26
v 444 58
v 445 86
v 446 58
v 447 56
v 448 60
v 449 33
v 450 53
v 451 20
v 452 69
v 453 53
v 454 34
v 455 79
v 456 22
v 457 44
v 458 51
v 459 98
v 460 48
v 461 26
v 462 31
v 463 45
v 464 97
v 465 58
v 466 38
v 467 56
v 468 21
v 469 35
v 470 14
v 471 65
v 472 72
v 473 0
v 474 41
v 475 90
v 476 40
v 477 29
v 478 80
v 479 32
v 480 83
v 481 9
v 482 17
v 483 93
v 484 58
v 485 62
v 486 53
v 487 9
v 488 21
v 489 24
v 490 73
v 491 70
v 492 63
v 493 69
v 494 91
v 495 24
v 496 9
v 497 34
v 498 61
v 499 49
v 500 67
